objective value:                                   16
C24074                                              1 	(obj:0)
C24075                                              1 	(obj:0)
C24077                                              1 	(obj:0)
C24079                                              1 	(obj:0)
C24081                                              1 	(obj:0)
C24092                                              1 	(obj:0)
C24094                                              1 	(obj:0)
C24096                                              1 	(obj:0)
C24098                                              1 	(obj:0)
C24107                                              1 	(obj:0)
C24109                                              1 	(obj:0)
C24111                                              1 	(obj:0)
C24113                                              1 	(obj:0)
C24115                                              1 	(obj:0)
C24116                                              1 	(obj:0)
C24117                                              1 	(obj:0)
C24118                                              1 	(obj:0)
C24119                                              1 	(obj:0)
C24120                                              1 	(obj:0)
C24121                                              1 	(obj:0)
C24122                                              1 	(obj:0)
C24123                                              1 	(obj:0)
C24124                                              1 	(obj:0)
C24127                                              1 	(obj:0)
C24128                                              1 	(obj:0)
C24130                                              1 	(obj:0)
C24131                                              1 	(obj:0)
C24132                                              1 	(obj:0)
C24134                                              1 	(obj:0)
C24137                                              1 	(obj:0)
C24138                                              1 	(obj:0)
C24141                                              1 	(obj:0)
C24142                                              1 	(obj:0)
C24149                                              1 	(obj:0)
C24150                                              1 	(obj:0)
C24155                                              1 	(obj:0)
C24156                                              1 	(obj:0)
C24159                                              1 	(obj:0)
C24167                                              1 	(obj:0)
C24168                                              1 	(obj:0)
C24177                                              1 	(obj:0)
C24179                                              1 	(obj:0)
C24180                                              1 	(obj:0)
C24181                                              1 	(obj:0)
C24182                                              1 	(obj:0)
C24183                                              1 	(obj:0)
C24193                                              1 	(obj:0)
C24194                                              1 	(obj:0)
C24199                                              1 	(obj:0)
C24202                                              1 	(obj:0)
C24205                                              1 	(obj:0)
C24206                                              1 	(obj:0)
C30326                                              1 	(obj:0)
C30328                                              1 	(obj:0)
C30330                                              1 	(obj:0)
C30332                                              1 	(obj:0)
C30343                                              1 	(obj:0)
C30345                                              1 	(obj:0)
C30347                                              1 	(obj:0)
C30349                                              1 	(obj:0)
C30358                                              1 	(obj:0)
C30360                                              1 	(obj:0)
C30362                                              1 	(obj:0)
C30364                                              1 	(obj:0)
C30367                                              1 	(obj:0)
C30368                                              1 	(obj:0)
C30370                                              1 	(obj:0)
C30374                                              1 	(obj:0)
C30375                                              1 	(obj:0)
C30378                                              1 	(obj:0)
C30379                                              1 	(obj:0)
C30380                                              1 	(obj:0)
C30382                                              1 	(obj:0)
C30383                                              1 	(obj:0)
C30388                                              1 	(obj:0)
C30392                                              1 	(obj:0)
C30393                                              1 	(obj:0)
C30400                                              1 	(obj:0)
C30401                                              1 	(obj:0)
C30406                                              1 	(obj:0)
C30407                                              1 	(obj:0)
C30419                                              1 	(obj:0)
C30428                                              1 	(obj:0)
C30430                                              1 	(obj:0)
C30431                                              1 	(obj:0)
C30433                                              1 	(obj:0)
C30434                                              1 	(obj:0)
C30444                                              1 	(obj:0)
C30445                                              1 	(obj:0)
C30450                                              1 	(obj:0)
C30453                                              1 	(obj:0)
C30454                                              1 	(obj:0)
C30455                                              1 	(obj:0)
C30456                                              1 	(obj:0)
C30457                                              1 	(obj:0)
C30741                                              1 	(obj:0)
C30747                                              1 	(obj:0)
C30785                                              1 	(obj:0)
C30786                                              1 	(obj:0)
C30789                                              1 	(obj:0)
C30790                                              1 	(obj:0)
C30797                                              1 	(obj:0)
C30798                                              1 	(obj:0)
C30810                                              1 	(obj:0)
C30816                                              1 	(obj:0)
C30845                                              1 	(obj:0)
C30853                                              1 	(obj:0)
C53690                                              1 	(obj:0)
C53695                                              1 	(obj:0)
C53699                                              1 	(obj:0)
C53701                                              1 	(obj:0)
C53704                                              1 	(obj:0)
C53726                                              1 	(obj:0)
C53727                                              1 	(obj:0)
C54763                                              1 	(obj:0)
C54768                                              1 	(obj:0)
C54790                                              1 	(obj:0)
C54791                                              1 	(obj:0)
C54931                                              1 	(obj:0)
C54934                                              1 	(obj:0)
C54936                                              1 	(obj:0)
C54938                                              1 	(obj:0)
C54939                                              1 	(obj:0)
C54947                                              1 	(obj:0)
C54949                                              1 	(obj:0)
C54951                                              1 	(obj:0)
C54953                                              1 	(obj:0)
C54955                                              1 	(obj:0)
C54964                                              1 	(obj:0)
C54966                                              1 	(obj:0)
C54968                                              1 	(obj:0)
C54970                                              1 	(obj:0)
C54972                                              1 	(obj:0)
C54973                                              1 	(obj:0)
C54975                                              1 	(obj:0)
C54981                                              1 	(obj:0)
C54982                                              1 	(obj:0)
C54985                                              1 	(obj:0)
C54988                                              1 	(obj:0)
C54989                                              1 	(obj:0)
C54990                                              1 	(obj:0)
C54991                                              1 	(obj:0)
C54993                                              1 	(obj:0)
C54994                                              1 	(obj:0)
C54995                                              1 	(obj:0)
C55003                                              1 	(obj:0)
C55012                                              1 	(obj:0)
C55013                                              1 	(obj:0)
C55015                                              1 	(obj:0)
C55024                                              1 	(obj:0)
C55038                                              1 	(obj:0)
C55039                                              1 	(obj:0)
C55049                                              1 	(obj:0)
C55050                                              1 	(obj:0)
C55051                                              1 	(obj:0)
C79278                                              1 	(obj:0)
C79365                                              1 	(obj:0)
C79369                                              1 	(obj:0)
C80823                                              1 	(obj:0)
C80828                                              1 	(obj:0)
C80832                                              1 	(obj:0)
C80834                                              1 	(obj:0)
C80854                                              1 	(obj:0)
C80855                                              1 	(obj:0)
C80856                                              1 	(obj:0)
C81048                                              1 	(obj:0)
C81089                                              1 	(obj:0)
C81098                                              1 	(obj:0)
C81100                                              1 	(obj:0)
C81120                                              1 	(obj:0)
C81121                                              1 	(obj:0)
C81122                                              1 	(obj:0)
C83540                                              1 	(obj:0)
C83615                                              1 	(obj:0)
C83620                                              1 	(obj:0)
C83624                                              1 	(obj:0)
C83626                                              1 	(obj:0)
C89753                                              1 	(obj:0)
C89754                                              1 	(obj:0)
C89755                                              1 	(obj:0)
C89756                                              1 	(obj:0)
C89757                                              1 	(obj:0)
C89758                                              1 	(obj:0)
C89759                                              1 	(obj:0)
C89760                                              1 	(obj:0)
C89761                                              1 	(obj:0)
C92579                                              1 	(obj:0)
C92581                                              1 	(obj:0)
C92589                                              1 	(obj:0)
C92636                                              1 	(obj:0)
C92644                                              1 	(obj:0)
C96027                                              1 	(obj:0)
C96029                                              1 	(obj:0)
C96066                                              1 	(obj:0)
C96067                                              1 	(obj:0)
C96068                                              1 	(obj:0)
C96070                                              1 	(obj:0)
C96071                                              1 	(obj:0)
C96072                                              1 	(obj:0)
C96073                                              1 	(obj:0)
C96074                                              1 	(obj:0)
C96075                                              1 	(obj:0)
C96081                                              1 	(obj:0)
C96083                                              1 	(obj:0)
C96120                                              1 	(obj:0)
C96134                                              1 	(obj:0)
C96136                                              1 	(obj:0)
C96137                                              1 	(obj:0)
C96138                                              1 	(obj:0)
C96139                                              1 	(obj:0)
C96140                                              1 	(obj:0)
C96141                                              1 	(obj:0)
C96142                                              1 	(obj:0)
C96143                                              1 	(obj:0)
C96144                                              1 	(obj:0)
C96145                                              1 	(obj:0)
C99485                                              1 	(obj:0)
C99487                                              1 	(obj:0)
C99489                                              1 	(obj:0)
C99491                                              1 	(obj:0)
C99493                                              1 	(obj:0)
C99496                                              1 	(obj:0)
C99498                                              1 	(obj:0)
C99502                                              1 	(obj:0)
C99504                                              1 	(obj:0)
C99506                                              1 	(obj:0)
C99508                                              1 	(obj:0)
C99510                                              1 	(obj:0)
C99516                                              1 	(obj:0)
C99519                                              1 	(obj:0)
C99521                                              1 	(obj:0)
C99523                                              1 	(obj:0)
C99525                                              1 	(obj:0)
C99526                                              1 	(obj:0)
C99527                                              1 	(obj:0)
C99529                                              1 	(obj:0)
C99531                                              1 	(obj:0)
C99532                                              1 	(obj:0)
C99533                                              1 	(obj:0)
C99536                                              1 	(obj:0)
C99537                                              1 	(obj:0)
C99540                                              1 	(obj:0)
C99541                                              1 	(obj:0)
C99544                                              1 	(obj:0)
C99545                                              1 	(obj:0)
C99548                                              1 	(obj:0)
C99549                                              1 	(obj:0)
C99550                                              1 	(obj:0)
C99551                                              1 	(obj:0)
C99558                                              1 	(obj:0)
C99559                                              1 	(obj:0)
C99568                                              1 	(obj:0)
C99569                                              1 	(obj:0)
C99578                                              1 	(obj:0)
C99592                                              1 	(obj:0)
C99593                                              1 	(obj:0)
C99604                                              1 	(obj:0)
C99605                                              1 	(obj:0)
C99606                                              1 	(obj:0)
C99614                                              1 	(obj:0)
C99617                                              1 	(obj:0)
C111601                                             1 	(obj:0)
C111603                                             1 	(obj:0)
C111607                                             1 	(obj:0)
C111609                                             1 	(obj:0)
C111619                                             1 	(obj:0)
C111654                                             1 	(obj:0)
C111662                                             1 	(obj:0)
C111680                                             1 	(obj:0)
C117055                                             1 	(obj:0)
C117057                                             1 	(obj:0)
C117063                                             1 	(obj:0)
C117065                                             1 	(obj:0)
C117109                                             1 	(obj:0)
C117117                                             1 	(obj:0)
C117133                                             1 	(obj:0)
C117316                                             1 	(obj:0)
C117318                                             1 	(obj:0)
C117334                                             1 	(obj:0)
C117336                                             1 	(obj:0)
C117338                                             1 	(obj:0)
C117376                                             1 	(obj:0)
C117384                                             1 	(obj:0)
C117391                                             1 	(obj:0)
C117395                                             1 	(obj:0)
C117396                                             1 	(obj:0)
C122763                                             1 	(obj:0)
C122770                                             1 	(obj:0)
C122772                                             1 	(obj:0)
C122786                                             1 	(obj:0)
C122788                                             1 	(obj:0)
C122817                                             1 	(obj:0)
C122821                                             1 	(obj:0)
C122831                                             1 	(obj:0)
C122839                                             1 	(obj:0)
C122890                                             1 	(obj:0)
C122903                                             1 	(obj:0)
C122905                                             1 	(obj:0)
C122911                                             1 	(obj:0)
C122919                                             1 	(obj:0)
C122921                                             1 	(obj:0)
C122942                                             1 	(obj:0)
C122954                                             1 	(obj:0)
C122964                                             1 	(obj:0)
C122972                                             1 	(obj:0)
C122982                                             1 	(obj:0)
C123018                                             1 	(obj:0)
C123023                                             1 	(obj:0)
C129414                                             1 	(obj:0)
C129416                                             1 	(obj:0)
C129418                                             1 	(obj:0)
C129421                                             1 	(obj:0)
C129423                                             1 	(obj:0)
C129435                                             1 	(obj:0)
C129437                                             1 	(obj:0)
C129439                                             1 	(obj:0)
C129443                                             1 	(obj:0)
C129448                                             1 	(obj:0)
C129469                                             1 	(obj:0)
C129479                                             1 	(obj:0)
C129480                                             1 	(obj:0)
C129487                                             1 	(obj:0)
C129488                                             1 	(obj:0)
C131914                                             1 	(obj:0)
C131915                                             1 	(obj:0)
C131916                                             1 	(obj:0)
C131917                                             1 	(obj:0)
C131918                                             1 	(obj:0)
C131919                                             1 	(obj:0)
C131920                                             1 	(obj:0)
C131921                                             1 	(obj:0)
C131922                                             1 	(obj:0)
C147106                                             1 	(obj:0)
C147113                                             1 	(obj:0)
C147115                                             1 	(obj:0)
C147129                                             1 	(obj:0)
C147131                                             1 	(obj:0)
C147135                                             1 	(obj:0)
C147136                                             1 	(obj:0)
C147161                                             1 	(obj:0)
C147171                                             1 	(obj:0)
C147179                                             1 	(obj:0)
C147186                                             1 	(obj:0)
C147237                                             1 	(obj:0)
C147246                                             1 	(obj:0)
C147248                                             1 	(obj:0)
C147262                                             1 	(obj:0)
C147264                                             1 	(obj:0)
C147266                                             1 	(obj:0)
C147285                                             1 	(obj:0)
C147294                                             1 	(obj:0)
C147304                                             1 	(obj:0)
C147312                                             1 	(obj:0)
C147315                                             1 	(obj:0)
C147316                                             1 	(obj:0)
C147319                                             1 	(obj:0)
C147360                                             1 	(obj:0)
C147363                                             1 	(obj:0)
C149362                                             1 	(obj:0)
C149395                                             1 	(obj:0)
C149441                                             1 	(obj:0)
C149449                                             1 	(obj:0)
C149451                                             1 	(obj:0)
C149456                                             1 	(obj:0)
C149458                                             1 	(obj:0)
C149462                                             1 	(obj:0)
C149466                                             1 	(obj:0)
C149482                                             1 	(obj:0)
C149483                                             1 	(obj:0)
C149484                                             1 	(obj:0)
C152168                                             1 	(obj:0)
C152231                                             1 	(obj:0)
C152240                                             1 	(obj:0)
C152241                                             1 	(obj:0)
C152243                                             1 	(obj:0)
C152248                                             1 	(obj:0)
C152250                                             1 	(obj:0)
C152254                                             1 	(obj:0)
C181644                                             1 	(obj:0)
C181650                                             1 	(obj:0)
C181672                                             1 	(obj:0)
C181673                                             1 	(obj:0)
C182903                                             1 	(obj:0)
C182927                                             1 	(obj:0)
C182928                                             1 	(obj:0)
C182945                                             1 	(obj:0)
C182953                                             1 	(obj:0)
C182961                                             1 	(obj:0)
C182974                                             1 	(obj:0)
C216418                                             1 	(obj:0)
C216420                                             1 	(obj:0)
C216422                                             1 	(obj:0)
C216424                                             1 	(obj:0)
C216463                                             1 	(obj:0)
C216464                                             1 	(obj:0)
C216471                                             1 	(obj:0)
C216472                                             1 	(obj:0)
C216478                                             1 	(obj:0)
C216480                                             1 	(obj:0)
C216495                                             1 	(obj:0)
C216497                                             1 	(obj:0)
C222979                                             1 	(obj:0)
C222995                                             1 	(obj:0)
C223006                                             1 	(obj:0)
C227859                                             1 	(obj:0)
C227900                                             1 	(obj:0)
C227908                                             1 	(obj:0)
C227916                                             1 	(obj:0)
C227927                                             1 	(obj:0)
C234841                                             1 	(obj:1)
C234844                                             1 	(obj:1)
C235016                                             1 	(obj:1)
C235024                                             1 	(obj:1)
C235026                                             1 	(obj:1)
C235220                                             1 	(obj:1)
C235222                                             1 	(obj:1)
C235309                                             1 	(obj:1)
C235335                                             1 	(obj:1)
C235361                                             1 	(obj:1)
C235452                                             1 	(obj:1)
C235493                                             1 	(obj:1)
C235537                                             1 	(obj:1)
C235604                                             1 	(obj:1)
C235978                                             1 	(obj:1)
C236289                                             1 	(obj:1)
